p cnf 67 240
2 3 12 -16 -30 0
2 -3 -12 -16 -30 0
-2 30 0
-2 -3 12 0
-2 16 0
-2 3 -12 0
3 4 -11 0
3 -4 11 0
-3 -4 -11 0
-3 4 11 0
4 5 -10 0
4 -5 10 0
-4 -5 -10 0
-4 5 10 0
5 6 -9 0
5 -6 9 0
-5 -6 -9 0
-5 6 9 0
6 -7 -8 0
6 7 8 0
-6 7 -8 0
-6 -7 8 0
7 -60 -61 0
-7 60 0
-7 61 0
8 59 -62 -65 0
8 -59 -62 65 0
-8 62 0
-8 -59 -65 0
-8 59 65 0
9 57 -64 -65 0
9 -57 -64 65 0
-9 64 0
-9 -57 -65 0
-9 57 65 0
10 61 -63 -66 0
10 -61 63 -66 0
-10 66 0
-10 61 63 0
-10 -61 -63 0
11 57 -58 -63 0
11 -57 -58 63 0
-11 58 0
-11 -57 -63 0
-11 57 63 0
12 7 -13 0
12 -7 13 0
-12 -7 -13 0
-12 7 13 0
13 11 -14 0
13 -11 14 0
-13 -11 -14 0
-13 11 14 0
14 10 -15 0
14 -10 15 0
-14 -10 -15 0
-14 10 15 0
15 -8 -9 0
15 8 9 0
-15 8 -9 0
-15 -8 9 0
16 -17 -26 0
16 17 26 0
-16 17 -26 0
-16 -17 26 0
17 18 -25 0
17 -18 25 0
-17 -18 -25 0
-17 18 25 0
18 19 -24 0
18 -19 24 0
-18 -19 -24 0
-18 19 24 0
19 20 -23 0
19 -20 23 0
-19 -20 -23 0
-19 20 23 0
20 -21 -22 0
20 21 22 0
-20 21 -22 0
-20 -21 22 0
21 -62 -63 0
-21 62 0
-21 63 0
22 57 -61 -64 0
22 -57 61 -64 0
-22 64 0
-22 57 61 0
-22 -57 -61 0
23 57 -59 -66 0
23 -57 59 -66 0
-23 66 0
-23 57 59 0
-23 -57 -59 0
24 -58 63 -65 0
24 -58 -63 65 0
-24 58 0
-24 -63 -65 0
-24 63 65 0
25 59 -60 -65 0
25 -59 -60 65 0
-25 60 0
-25 -59 -65 0
-25 59 65 0
26 22 -27 0
26 -22 27 0
-26 -22 -27 0
-26 22 27 0
27 21 -28 0
27 -21 28 0
-27 -21 -28 0
-27 21 28 0
28 25 -29 0
28 -25 29 0
-28 -25 -29 0
-28 25 29 0
29 -23 -24 0
29 23 24 0
-29 23 -24 0
-29 -23 24 0
30 31 40 -44 -53 0
30 -31 -40 -44 -53 0
30 31 40 44 53 0
30 -31 -40 44 53 0
-30 31 -40 0
-30 -31 40 0
-30 44 -53 0
-30 -44 53 0
31 32 -39 0
31 -32 39 0
-31 -32 -39 0
-31 32 39 0
32 33 -38 0
32 -33 38 0
-32 -33 -38 0
-32 33 38 0
33 34 -37 0
33 -34 37 0
-33 -34 -37 0
-33 34 37 0
34 -35 -36 0
34 35 36 0
-34 35 -36 0
-34 -35 36 0
35 -64 -65 0
-35 64 0
-35 65 0
36 59 -63 -66 0
36 -59 63 -66 0
-36 66 0
-36 59 63 0
-36 -59 -63 0
37 -58 59 -61 0
37 -58 -59 61 0
-37 58 0
-37 -59 -61 0
-37 59 61 0
38 57 -60 -65 0
38 -57 -60 65 0
-38 60 0
-38 -57 -65 0
-38 57 65 0
39 57 -61 -62 0
39 -57 61 -62 0
-39 62 0
-39 57 61 0
-39 -57 -61 0
40 37 -41 0
40 -37 41 0
-40 -37 -41 0
-40 37 41 0
41 36 -42 0
41 -36 42 0
-41 -36 -42 0
-41 36 42 0
42 35 -43 0
42 -35 43 0
-42 -35 -43 0
-42 35 43 0
43 -38 -39 0
43 38 39 0
-43 38 -39 0
-43 -38 39 0
44 45 -52 0
44 -45 52 0
-44 -45 -52 0
-44 45 52 0
45 46 -51 0
45 -46 51 0
-45 -46 -51 0
-45 46 51 0
46 47 -50 0
46 -47 50 0
-46 -47 -50 0
-46 47 50 0
47 -48 -49 0
47 48 49 0
-47 48 -49 0
-47 -48 49 0
48 -57 -66 0
-48 57 0
-48 66 0
49 -58 61 -65 0
49 -58 -61 65 0
-49 58 0
-49 -61 -65 0
-49 61 65 0
50 -60 61 -63 0
50 -60 -61 63 0
-50 60 0
-50 -61 -63 0
-50 61 63 0
51 57 -59 -62 0
51 -57 59 -62 0
-51 62 0
-51 57 59 0
-51 -57 -59 0
52 59 -63 -64 0
52 -59 63 -64 0
-52 64 0
-52 59 63 0
-52 -59 -63 0
53 51 -54 0
53 -51 54 0
-53 -51 -54 0
-53 51 54 0
54 50 -55 0
54 -50 55 0
-54 -50 -55 0
-54 50 55 0
55 49 -56 0
55 -49 56 0
-55 -49 -56 0
-55 49 56 0
56 -48 -52 0
56 48 52 0
-56 48 -52 0
-56 -48 52 0
67 0
-2 0

